p cnf 230 660
c inputs: 1 2 3 4 5 6 7 8 9 10
c variables for gates: 11 ... 220
c outputs: 221 222 223 224 225 226 227 228 229 230
c random input: 1 -2 3 -4 -5 -6 7 -8 9 -10
11 -1 -6 0
-11 1 0
-11 6 0
12 -2 -6 0
-12 2 0
-12 6 0
13 -3 -6 0
-13 3 0
-13 6 0
14 -4 -6 0
-14 4 0
-14 6 0
15 -5 -6 0
-15 5 0
-15 6 0
16 -1 -7 0
-16 1 0
-16 7 0
17 -2 -7 0
-17 2 0
-17 7 0
18 -3 -7 0
-18 3 0
-18 7 0
19 -4 -7 0
-19 4 0
-19 7 0
20 -5 -7 0
-20 5 0
-20 7 0
21 -1 -8 0
-21 1 0
-21 8 0
22 -2 -8 0
-22 2 0
-22 8 0
23 -3 -8 0
-23 3 0
-23 8 0
24 -4 -8 0
-24 4 0
-24 8 0
25 -5 -8 0
-25 5 0
-25 8 0
26 -1 -9 0
-26 1 0
-26 9 0
27 -2 -9 0
-27 2 0
-27 9 0
28 -3 -9 0
-28 3 0
-28 9 0
29 -4 -9 0
-29 4 0
-29 9 0
30 -5 -9 0
-30 5 0
-30 9 0
31 -1 -10 0
-31 1 0
-31 10 0
32 -2 -10 0
-32 2 0
-32 10 0
33 -3 -10 0
-33 3 0
-33 10 0
34 -4 -10 0
-34 4 0
-34 10 0
35 -5 -10 0
-35 5 0
-35 10 0
36 -27 -31 0
-36 27 0
-36 31 0
37 -31 27 0
-37 31 0
-37 -27 0
38 -27 31 0
-38 27 0
-38 -31 0
39 37 38 0
-39 -37 0
-39 -38 0
40 -32 -36 0
-40 32 0
-40 36 0
41 32 -36 0
-41 -32 0
-41 36 0
42 -32 36 0
-42 32 0
-42 -36 0
43 41 42 0
-43 -41 0
-43 -42 0
44 -22 -26 0
-44 22 0
-44 26 0
45 -26 22 0
-45 26 0
-45 -22 0
46 -22 26 0
-46 22 0
-46 -26 0
47 45 46 0
-47 -45 0
-47 -46 0
48 -44 39 0
-48 44 0
-48 -39 0
49 -23 -44 0
-49 23 0
-49 44 0
50 -23 39 0
-50 23 0
-50 -39 0
51 49 50 0
-51 -49 0
-51 -50 0
52 48 -51 0
-52 -48 0
-52 51 0
53 23 39 0
-53 -23 0
-53 -39 0
54 -23 -39 0
-54 23 0
-54 39 0
55 54 53 0
-55 -54 0
-55 -53 0
56 -44 -55 0
-56 44 0
-56 55 0
57 44 55 0
-57 -44 0
-57 -55 0
58 56 57 0
-58 -56 0
-58 -57 0
59 43 52 0
-59 -43 0
-59 -52 0
60 -28 52 0
-60 28 0
-60 -52 0
61 -28 43 0
-61 28 0
-61 -43 0
62 61 60 0
-62 -61 0
-62 -60 0
63 59 -62 0
-63 -59 0
-63 62 0
64 28 43 0
-64 -28 0
-64 -43 0
65 -28 -43 0
-65 28 0
-65 43 0
66 64 65 0
-66 -64 0
-66 -65 0
67 -66 52 0
-67 66 0
-67 -52 0
68 66 -52 0
-68 -66 0
-68 52 0
69 67 68 0
-69 -67 0
-69 -68 0
70 -40 63 0
-70 40 0
-70 -63 0
71 -33 63 0
-71 33 0
-71 -63 0
72 -33 -40 0
-72 33 0
-72 40 0
73 72 71 0
-73 -72 0
-73 -71 0
74 70 -73 0
-74 -70 0
-74 73 0
75 33 -40 0
-75 -33 0
-75 40 0
76 -33 40 0
-76 33 0
-76 -40 0
77 76 75 0
-77 -76 0
-77 -75 0
78 -77 63 0
-78 77 0
-78 -63 0
79 77 -63 0
-79 -77 0
-79 63 0
80 79 78 0
-80 -79 0
-80 -78 0
81 -17 -21 0
-81 17 0
-81 21 0
82 -21 17 0
-82 21 0
-82 -17 0
83 -17 21 0
-83 17 0
-83 -21 0
84 82 83 0
-84 -82 0
-84 -83 0
85 -81 47 0
-85 81 0
-85 -47 0
86 -18 -81 0
-86 18 0
-86 81 0
87 -18 47 0
-87 18 0
-87 -47 0
88 86 87 0
-88 -86 0
-88 -87 0
89 85 -88 0
-89 -85 0
-89 88 0
90 18 47 0
-90 -18 0
-90 -47 0
91 -18 -47 0
-91 18 0
-91 47 0
92 91 90 0
-92 -91 0
-92 -90 0
93 -81 -92 0
-93 81 0
-93 92 0
94 81 92 0
-94 -81 0
-94 -92 0
95 93 94 0
-95 -93 0
-95 -94 0
96 89 58 0
-96 -89 0
-96 -58 0
97 -19 89 0
-97 19 0
-97 -89 0
98 -19 58 0
-98 19 0
-98 -58 0
99 97 98 0
-99 -97 0
-99 -98 0
100 96 -99 0
-100 -96 0
-100 99 0
101 19 58 0
-101 -19 0
-101 -58 0
102 -19 -58 0
-102 19 0
-102 58 0
103 101 102 0
-103 -101 0
-103 -102 0
104 89 -103 0
-104 -89 0
-104 103 0
105 -89 103 0
-105 89 0
-105 -103 0
106 105 104 0
-106 -105 0
-106 -104 0
107 100 69 0
-107 -100 0
-107 -69 0
108 -24 100 0
-108 24 0
-108 -100 0
109 -24 69 0
-109 24 0
-109 -69 0
110 108 109 0
-110 -108 0
-110 -109 0
111 107 -110 0
-111 -107 0
-111 110 0
112 24 69 0
-112 -24 0
-112 -69 0
113 -24 -69 0
-113 24 0
-113 69 0
114 113 112 0
-114 -113 0
-114 -112 0
115 -114 100 0
-115 114 0
-115 -100 0
116 114 -100 0
-116 -114 0
-116 100 0
117 116 115 0
-117 -116 0
-117 -115 0
118 111 80 0
-118 -111 0
-118 -80 0
119 -29 111 0
-119 29 0
-119 -111 0
120 -29 80 0
-120 29 0
-120 -80 0
121 119 120 0
-121 -119 0
-121 -120 0
122 118 -121 0
-122 -118 0
-122 121 0
123 29 80 0
-123 -29 0
-123 -80 0
124 -29 -80 0
-124 29 0
-124 80 0
125 124 123 0
-125 -124 0
-125 -123 0
126 111 -125 0
-126 -111 0
-126 125 0
127 -111 125 0
-127 111 0
-127 -125 0
128 127 126 0
-128 -127 0
-128 -126 0
129 74 122 0
-129 -74 0
-129 -122 0
130 -34 122 0
-130 34 0
-130 -122 0
131 -34 74 0
-131 34 0
-131 -74 0
132 131 130 0
-132 -131 0
-132 -130 0
133 129 -132 0
-133 -129 0
-133 132 0
134 34 74 0
-134 -34 0
-134 -74 0
135 -34 -74 0
-135 34 0
-135 74 0
136 134 135 0
-136 -134 0
-136 -135 0
137 -136 122 0
-137 136 0
-137 -122 0
138 136 -122 0
-138 -136 0
-138 122 0
139 137 138 0
-139 -137 0
-139 -138 0
140 -12 16 0
-140 12 0
-140 -16 0
141 -16 12 0
-141 16 0
-141 -12 0
142 141 140 0
-142 -141 0
-142 -140 0
143 -12 -16 0
-143 12 0
-143 16 0
144 -13 -84 0
-144 13 0
-144 84 0
145 13 84 0
-145 -13 0
-145 -84 0
146 144 145 0
-146 -144 0
-146 -145 0
147 -143 -146 0
-147 143 0
-147 146 0
148 143 146 0
-148 -143 0
-148 -146 0
149 147 148 0
-149 -147 0
-149 -148 0
150 -13 -143 0
-150 13 0
-150 143 0
151 -143 84 0
-151 143 0
-151 -84 0
152 -13 84 0
-152 13 0
-152 -84 0
153 152 151 0
-153 -152 0
-153 -151 0
154 150 -153 0
-154 -150 0
-154 153 0
155 -14 -95 0
-155 14 0
-155 95 0
156 14 95 0
-156 -14 0
-156 -95 0
157 156 155 0
-157 -156 0
-157 -155 0
158 154 -157 0
-158 -154 0
-158 157 0
159 -154 157 0
-159 154 0
-159 -157 0
160 159 158 0
-160 -159 0
-160 -158 0
161 -14 154 0
-161 14 0
-161 -154 0
162 154 95 0
-162 -154 0
-162 -95 0
163 -14 95 0
-163 14 0
-163 -95 0
164 162 163 0
-164 -162 0
-164 -163 0
165 161 -164 0
-165 -161 0
-165 164 0
166 -15 -106 0
-166 15 0
-166 106 0
167 15 106 0
-167 -15 0
-167 -106 0
168 167 166 0
-168 -167 0
-168 -166 0
169 165 -168 0
-169 -165 0
-169 168 0
170 -165 168 0
-170 165 0
-170 -168 0
171 170 169 0
-171 -170 0
-171 -169 0
172 -15 165 0
-172 15 0
-172 -165 0
173 165 106 0
-173 -165 0
-173 -106 0
174 -15 106 0
-174 15 0
-174 -106 0
175 173 174 0
-175 -173 0
-175 -174 0
176 172 -175 0
-176 -172 0
-176 175 0
177 -20 -117 0
-177 20 0
-177 117 0
178 20 117 0
-178 -20 0
-178 -117 0
179 178 177 0
-179 -178 0
-179 -177 0
180 -179 176 0
-180 179 0
-180 -176 0
181 179 -176 0
-181 -179 0
-181 176 0
182 181 180 0
-182 -181 0
-182 -180 0
183 -20 176 0
-183 20 0
-183 -176 0
184 176 117 0
-184 -176 0
-184 -117 0
185 -20 117 0
-185 20 0
-185 -117 0
186 184 185 0
-186 -184 0
-186 -185 0
187 183 -186 0
-187 -183 0
-187 186 0
188 -25 -128 0
-188 25 0
-188 128 0
189 25 128 0
-189 -25 0
-189 -128 0
190 189 188 0
-190 -189 0
-190 -188 0
191 -190 187 0
-191 190 0
-191 -187 0
192 190 -187 0
-192 -190 0
-192 187 0
193 191 192 0
-193 -191 0
-193 -192 0
194 -25 187 0
-194 25 0
-194 -187 0
195 128 187 0
-195 -128 0
-195 -187 0
196 -25 128 0
-196 25 0
-196 -128 0
197 196 195 0
-197 -196 0
-197 -195 0
198 -197 194 0
-198 197 0
-198 -194 0
199 -30 -139 0
-199 30 0
-199 139 0
200 30 139 0
-200 -30 0
-200 -139 0
201 199 200 0
-201 -199 0
-201 -200 0
202 -201 198 0
-202 201 0
-202 -198 0
203 201 -198 0
-203 -201 0
-203 198 0
204 202 203 0
-204 -202 0
-204 -203 0
205 -30 198 0
-205 30 0
-205 -198 0
206 139 198 0
-206 -139 0
-206 -198 0
207 -30 139 0
-207 30 0
-207 -139 0
208 207 206 0
-208 -207 0
-208 -206 0
209 -208 205 0
-209 208 0
-209 -205 0
210 -35 -133 0
-210 35 0
-210 133 0
211 35 133 0
-211 -35 0
-211 -133 0
212 210 211 0
-212 -210 0
-212 -211 0
213 209 -212 0
-213 -209 0
-213 212 0
214 -209 212 0
-214 209 0
-214 -212 0
215 214 213 0
-215 -214 0
-215 -213 0
216 -35 209 0
-216 35 0
-216 -209 0
217 133 209 0
-217 -133 0
-217 -209 0
218 -35 133 0
-218 35 0
-218 -133 0
219 218 217 0
-219 -218 0
-219 -217 0
220 -219 216 0
-220 219 0
-220 -216 0
-221 11 0
221 -11 0
-222 -142 0
222 142 0
-223 -149 0
223 149 0
-224 -160 0
224 160 0
-225 -171 0
225 171 0
-226 -182 0
226 182 0
-227 -193 0
227 193 0
-228 -204 0
228 204 0
-229 -215 0
229 215 0
-230 -220 0
230 220 0
-221 0
222 0
-223 0
-224 0
225 0
226 0
-227 0
-228 0
-229 0
-230 0
